(set-logic QF_NIA)
(declare-const f10 Int)
(assert (>= f10 0))
(declare-const f11 Int)
(assert (>= f11 0))
(declare-const f20 Int)
(assert (>= f20 0))
(declare-const f21 Int)
(assert (>= f21 0))
(assert (or (and (or (< f11 f11) (and (= f11 f11) (< f10 f10))) (or (<= f21 f21) (and (= f21 f21) (<= f20 f20)))) (and (and (= f10 f10) (= f11 f11)) (or (< f21 f21) (and (= f21 f21) (< f20 f20))))))
(check-sat)
(get-model)
